% Generated FlatZinc statistics:
%%%mzn-stat: paths=220034
%%%mzn-stat: flatBoolVars=2832
%%%mzn-stat: flatIntVars=8603
%%%mzn-stat: flatSetVars=5625
%%%mzn-stat: flatIntConstraints=9578
%%%mzn-stat: flatSetConstraints=7407
%%%mzn-stat: evaluatedReifiedConstraints=2832
%%%mzn-stat: method="minimize"
%%%mzn-stat: flatTime=28.1311
%%%mzn-stat-end
w = 7680; 
link_objective = 80; 
cpu_objective = 96; 
services2locs = [7, 4, 14, 12, 2, 9, 11, 10, 8, 13, 6, 4, 6, 9, 4, 4, 5, 3, 8, 6, 10, 1, 2, 3, 14, 7, 12, 10, 5, 9, 14, 6, 9, 14, 10, 14, 11, 14, 2, 3, 1, 2, 11, 8, 14, 4, 10, 14, 8, 3, 8, 10, 4, 4, 11, 6, 7, 3, 2, 13, 7, 12, 7, 8, 5, 7, 1, 9, 1, 8, 12, 8, 9, 4, 3];
locations2names = ["ECU1", "ECU2", "ECU3", "DM1", "DM2", "DM3", "CAM1", "CAM2", "CAM3", "CAM4", "Display1", "Display2", "Display3", "Display4", "Switch1", "Switch2", "Switch3", "Switch4", "Switch5"];
services2names = ["S4_BE_1", "S4_BE_2", "S2_Audio_1", "S4_BE_3", "S1_C&C_1_1", "S2_Audio_2", "S1_C&C_1_2", "S4_BE_4", "S1_C&C_1_3", "S3_Video_1", "S4_BE_5", "S4_BE_6", "S2_Audio_3", "S1_C&C_2_1", "S2_Audio_4", "S3_Video_2", "S2_Audio_5", "S4_BE_7", "S4_BE_8", "S1_C&C_1_4", "S3_Video_3", "S1_C&C_1_5", "S4_BE_9", "S4_BE_10", "S2_Audio_6", "S2_Audio_7", "S2_Audio_8", "S1_C&C_2_2", "S3_Video_4", "S2_Audio_9", "S1_C&C_2_3", "S2_Audio_10", "S1_C&C_1_6", "S1_C&C_1_7", "S4_BE_11", "S4_BE_12", "S1_C&C_1_8", "S4_BE_13", "S2_Audio_11", "S2_Audio_12", "S2_Audio_13", "S3_Video_5", "S4_BE_14", "S2_Audio_14", "S4_BE_15", "S3_Video_6", "S1_C&C_2_4", "S4_BE_16", "S1_C&C_1_9", "S4_BE_17", "S3_Video_7", "S4_BE_18", "S4_BE_19", "S2_Audio_15", "S2_Audio_16", "S3_Video_8", "S3_Video_9", "S3_Video_10", "S1_C&C_1_10", "S2_Audio_17", "S1_C&C_1_11", "S3_Video_11", "S4_BE_20", "S2_Audio_18", "S1_C&C_1_12", "S1_C&C_1_13", "S1_C&C_1_14", "S1_C&C_1_15", "S3_Video_12", "S1_C&C_1_16", "S1_C&C_2_5", "S4_BE_21", "S4_BE_22", "S1_C&C_1_17", "S3_Video_13"];
cpu_usage = [48, 60, 72, 96, 36, 60, 72, 96, 72, 72, 48, 48, 24, 96, 0, 0, 0, 0, 0]; 
slack = [74589360, 52283200, 70089536, 74885104, 48292992, 19279552, 73407888, 92646480, 88416304, 74208176, 62624480, 67154736, 89366288, 87681360, 71270352, 979733696, 77978880, 69559216]; 
charge = [25, 47, 29, 25, 51, 80, 26, 7, 11, 25, 37, 32, 10, 12, 28, 2, 22, 30]; 
----------
%%%mzn-stat: initTime=0.567623
%%%mzn-stat: solveTime=31.9903
%%%mzn-stat: solutions=9
%%%mzn-stat: variables=17065
%%%mzn-stat: propagators=16985
%%%mzn-stat: propagations=12307548
%%%mzn-stat: nodes=8296
%%%mzn-stat: failures=4102
%%%mzn-stat: restarts=0
%%%mzn-stat: peakDepth=81
%%%mzn-stat-end
%%%mzn-stat: nSolutions=1
%%%mzn-stat-end
